
Gurobi 9.1.2 (win64, Java) logging started Thu Nov 11 18:21:26 2021

Academic license - for non-commercial use only - expires 2022-10-30
Gurobi Optimizer version 9.1.2 build v9.1.2rc0 (win64)
Thread count: 6 physical cores, 12 logical processors, using up to 12 threads
Optimize a model with 50 rows, 400 columns and 800 nonzeros
Model fingerprint: 0x726aabae
Variable types: 0 continuous, 400 integer (400 binary)
Coefficient statistics:
  Matrix range     [1e+00, 1e+03]
  Objective range  [4e+01, 1e+03]
  Bounds range     [1e+00, 1e+00]
  RHS range        [1e+00, 2e+03]
Found heuristic solution: objective 13109.000000
Presolve removed 1 rows and 113 columns
Presolve time: 0.00s
Presolved: 49 rows, 287 columns, 574 nonzeros
Variable types: 0 continuous, 287 integer (287 binary)
Presolved: 49 rows, 287 columns, 574 nonzeros


Root relaxation: objective 1.562775e+04, 101 iterations, 0.00 seconds

    Nodes    |    Current Node    |     Objective Bounds      |     Work
 Expl Unexpl |  Obj  Depth IntInf | Incumbent    BestBd   Gap | It/Node Time

     0     0 15627.7542    0   10 13109.0000 15627.7542  19.2%     -    0s
H    0     0                    14798.000000 15627.7542  5.61%     -    0s
H    0     0                    15378.000000 15627.7542  1.62%     -    0s
H    0     0                    15431.000000 15627.7542  1.28%     -    0s
     0     0 15608.3077    0   25 15431.0000 15608.3077  1.15%     -    0s
     0     0 15608.3077    0   27 15431.0000 15608.3077  1.15%     -    0s
     0     0 15585.7429    0   35 15431.0000 15585.7429  1.00%     -    0s
     0     0 15585.7429    0   32 15431.0000 15585.7429  1.00%     -    0s
     0     0 15585.6812    0   34 15431.0000 15585.6812  1.00%     -    0s
     0     0 15585.6812    0   23 15431.0000 15585.6812  1.00%     -    0s
     0     0 15585.6812    0   12 15431.0000 15585.6812  1.00%     -    0s
     0     0 15585.6812    0   25 15431.0000 15585.6812  1.00%     -    0s
     0     0 15585.6812    0   32 15431.0000 15585.6812  1.00%     -    0s
     0     0 15585.6812    0   34 15431.0000 15585.6812  1.00%     -    0s
     0     0 15585.6812    0   33 15431.0000 15585.6812  1.00%     -    0s
     0     0 15585.6812    0   36 15431.0000 15585.6812  1.00%     -    0s
     0     0 15585.4845    0   40 15431.0000 15585.4845  1.00%     -    0s
     0     0 15585.4845    0   34 15431.0000 15585.4845  1.00%     -    0s
     0     0 15585.4636    0   36 15431.0000 15585.4636  1.00%     -    0s
     0     0 15585.4636    0   30 15431.0000 15585.4636  1.00%     -    0s
     0     2 15585.4636    0   30 15431.0000 15585.4636  1.00%     -    0s
H 5719  3074                    15440.000000 15553.7188  0.74%  23.4    2s
 13953  8215 infeasible   67      15440.0000 15553.6891  0.74%  36.3    5s
 24209 15688 15483.0355   77   60 15440.0000 15553.6260  0.74%  43.0   10s
 37316 22890 15475.3333   84   23 15440.0000 15553.5159  0.74%  47.8   15s
H37439 21829                    15478.000000 15551.0763  0.47%  47.9   18s
 38758 22518 15549.6708   56   84 15478.0000 15550.6124  0.47%  48.4   20s
 46174 23941 15511.3090   83   59 15478.0000 15549.1748  0.46%  52.0   25s
H46192 19911                    15534.000000 15549.1748  0.10%  52.0   25s

Cutting planes:
  Gomory: 8
  Cover: 166
  Clique: 4
  MIR: 245
  StrongCG: 140
  Flow cover: 21
  Inf proof: 1
  Zero half: 1
  RLT: 2

Explored 51406 nodes (2832904 simplex iterations) in 28.18 seconds
Thread count was 12 (of 12 available processors)

Solution count 7: 15534 15478 15440 ... 13109

Optimal solution found (tolerance 1.00e-12)
Best objective 1.553400000000e+04, best bound 1.553400000000e+04, gap 0.0000%
